Route #1: 71 62 99 98 89
Route #2: 83 51 81
Route #3: 4 13 74
Route #4: 18 10 39
Route #5: 66 84 90 68
Route #6: 86 9 92
Route #7: 54 70 1
Route #8: 82 60 59
Route #9: 57 72 36 29 43 45 2 7
Route #10: 24 95 73 53 33 32
Route #11: 30 85 11 79
Route #12: 76 55 16 69
Route #13: 25 65 78 42 28
Route #14: 80 94 56 21
Route #15: 27 97 19
Route #16: 52 91 50
Route #17: 31 46 35
Route #18: 38 47 26 48 96 64 34
Route #19: 15 22 41 20
Route #20: 3 77 63
Route #21: 93 75
Route #22: 14 49 6 37 87
Route #23: 5 12 58
Route #24: 40 88 67 44
Route #25: 100 61 23
Route #26: 17 8
Cost 27591.0000
Time 16.0006